57 57
4 45
24 56
12 41
9 20
23 1
2 42
20 14
9 46
18 17
28 33
19 32
13 12
15 16
18 36
27 31
21 53
1 47
16 21
8 40
16 15
3 10
19 44
7 38
23 49
8 24
1 51
11 43
10 23
15 2
7 55
27 4
25 34
28 28
22 29
14 57
6 11
20 19
4 50
11 39
17 5
22 52
26 54
3 48
12 8
24 7
5 30
6 13
14 37
5 26
13 25
25 6
1 18
10 27
2 9
17 3
21 35
26 22
